Name: EasyAcademy6
Courses: 50
Rooms: 15
Days: 5
Periods_per_day: 10
Curricula: 19
Min_Max_Daily_Lectures: 4 8
UnavailabilityConstraints: 762
RoomConstraints: 2

COURSES:
c2340 t281 6 3 130 1
c2342 t282 6 3 184 1
c2345 t284 6 3 84 1
c2347 no_teacher1 6 3 250 1
c2348 t288 6 3 300 1
c2350 t290 6 3 120 1
c2351 t291 6 3 120 1
c2354 t293 6 3 92 1
c2359 t297 6 3 124 1
c2360 t298 6 3 100 1
c2362 t299 6 2 90 1
c2363 t300 6 3 40 1
c2365 t302 6 3 60 1
c2369 t305 6 3 150 1
c2371 no_teacher2 4 2 240 1
c2375 no_teacher3 8 2 120 1
c2378 t306 6 3 100 1
c2382 t1126 6 3 100 1
c2383 t312 6 3 350 1
c2384 t313 6 3 350 1
c2386 t315 6 3 250 1
c2387 t316 6 3 300 1
c2391 t319 6 3 160 1
c2395 t303 6 3 220 1
c2396 t468 6 3 220 1
c2397 t302 6 3 220 1
c2398 t298 6 3 84 1
c2402 t324 6 3 120 1
c2405 t326 6 3 120 1
c2407 t328 6 3 60 1
c2408 t312 6 3 150 1
c2409 t313 6 3 150 1
c2410 t330 6 3 150 1
c2413 t331 6 3 220 1
c2414 t333 6 3 220 1
c2415 t332 6 3 220 1
c2469 t343 6 3 30 1
c2498 t360 6 3 120 1
c2504 t309 6 3 180 1
c2515 t314 6 3 130 1
c2516 t367 6 3 40 1
c2613 t1122 6 3 40 1
c2619 t295 6 3 124 1
c2621 t295 6 3 90 1
c2622 t317 6 3 40 1
c2636 t285 6 3 160 1
c2639 t343 6 3 30 1
c2644 t323 6 3 60 1
c2645 t292 6 3 154 1
c2657 t320 6 3 60 1

ROOMS:
r292 400 5
r290 90 4
r291 45 4
r280 98 1
r281 98 1
r282 189 1
r283 189 1
r284 168 1
r285 168 1
r286 15 1
r287 280 3
r288 120 3
r289 90 3
r265 250 0
r266 55 0

CURRICULA:
cu446 4 c2371 c2383 c2395 c2413
cu447 5 c2371 c2383 c2384 c2396 c2414
cu448 4 c2371 c2384 c2397 c2415
cu453 6 c2360 c2378 c2382 c2363 c2516 c2622
cu467 5 c2362 c2621 c2363 c2516 c2622
cu492 7 c2369 c2375 c2408 c2409 c2410 c2613 c2622
cu493 2 c2405 c2515
cu494 6 c2365 c2375 c2657 c2342 c2515 c2639
cu495 5 c2407 c2644 c2342 c2515 c2639
cu496 4 c2342 c2375 c2504 c2622
cu497 3 c2391 c2636 c2622
cu498 8 c2348 c2387 c2645 c2345 c2354 c2359 c2371 c2469
cu499 7 c2351 c2402 c2619 c2345 c2354 c2359 c2469
cu500 6 c2347 c2386 c2340 c2371 c2469 c2645
cu501 6 c2345 c2354 c2398 c2340 c2469 c2645
cu502 6 c2347 c2386 c2354 c2371 c2398 c2619
cu503 5 c2350 c2359 c2354 c2398 c2619
cu504 4 c2348 c2387 c2354 c2371
cu505 3 c2340 c2498 c2354

UNAVAILABILITY_CONSTRAINTS:
c2340 0 5
c2340 0 6
c2340 0 7
c2340 0 8
c2340 0 9
c2340 1 5
c2340 1 6
c2340 1 7
c2340 1 8
c2340 1 9
c2340 3 5
c2340 3 6
c2340 3 7
c2340 3 8
c2340 3 9
c2340 4 5
c2340 4 6
c2340 4 7
c2340 4 8
c2340 4 9
c2342 0 5
c2342 0 6
c2342 0 7
c2342 0 8
c2342 0 9
c2342 1 5
c2342 1 6
c2342 1 7
c2342 1 8
c2342 1 9
c2342 3 5
c2342 3 6
c2342 3 7
c2342 3 8
c2342 3 9
c2342 4 5
c2342 4 6
c2342 4 7
c2342 4 8
c2342 4 9
c2345 3 5
c2345 3 6
c2345 3 7
c2345 3 8
c2345 3 9
c2345 4 5
c2345 4 6
c2345 4 7
c2345 4 8
c2345 4 9
c2347 0 5
c2347 0 6
c2347 0 7
c2347 0 8
c2347 0 9
c2347 1 5
c2347 1 6
c2347 1 7
c2347 1 8
c2347 1 9
c2348 0 5
c2348 0 6
c2348 0 7
c2348 0 8
c2348 0 9
c2348 1 5
c2348 1 6
c2348 1 7
c2348 1 8
c2348 1 9
c2348 2 5
c2348 2 6
c2348 2 7
c2348 2 8
c2348 2 9
c2348 3 5
c2348 3 6
c2348 3 7
c2348 3 8
c2348 3 9
c2348 4 5
c2348 4 6
c2348 4 7
c2348 4 8
c2348 4 9
c2350 0 5
c2350 0 6
c2350 0 7
c2350 0 8
c2350 0 9
c2350 1 5
c2350 1 6
c2350 1 7
c2350 1 8
c2350 1 9
c2351 3 5
c2351 3 6
c2351 3 7
c2351 3 8
c2351 3 9
c2351 4 5
c2351 4 6
c2351 4 7
c2351 4 8
c2351 4 9
c2354 3 5
c2354 3 6
c2354 3 7
c2354 3 8
c2354 3 9
c2359 0 5
c2359 0 6
c2359 0 7
c2359 0 8
c2359 0 9
c2359 1 5
c2359 1 6
c2359 1 7
c2359 1 8
c2359 1 9
c2359 3 5
c2359 3 6
c2359 3 7
c2359 3 8
c2359 3 9
c2359 4 5
c2359 4 6
c2359 4 7
c2359 4 8
c2359 4 9
c2360 4 5
c2360 4 6
c2360 4 7
c2360 4 8
c2360 4 9
c2362 0 5
c2362 0 6
c2362 0 7
c2362 0 8
c2362 0 9
c2362 1 0
c2362 1 1
c2362 1 2
c2362 1 3
c2362 1 5
c2362 1 6
c2362 1 7
c2362 1 8
c2362 1 9
c2363 0 0
c2363 0 5
c2363 0 6
c2363 0 7
c2363 0 8
c2363 0 9
c2363 1 5
c2363 1 6
c2363 1 7
c2363 1 8
c2363 1 9
c2363 4 5
c2363 4 6
c2363 4 7
c2363 4 8
c2363 4 9
c2365 3 5
c2365 3 6
c2365 3 7
c2365 3 8
c2365 3 9
c2365 4 5
c2365 4 6
c2365 4 7
c2365 4 8
c2365 4 9
c2369 3 5
c2369 3 6
c2369 3 7
c2369 3 8
c2369 3 9
c2369 4 5
c2369 4 6
c2369 4 7
c2369 4 8
c2369 4 9
c2371 1 0
c2371 1 1
c2371 1 2
c2371 1 3
c2371 1 4
c2371 1 5
c2371 1 6
c2371 1 7
c2371 1 8
c2371 1 9
c2371 3 0
c2371 3 1
c2371 3 2
c2371 3 3
c2371 3 4
c2371 3 5
c2371 3 6
c2371 3 7
c2371 3 8
c2371 3 9
c2371 4 0
c2371 4 1
c2371 4 2
c2371 4 3
c2371 4 4
c2371 4 5
c2371 4 6
c2371 4 7
c2371 4 8
c2371 4 9
c2375 0 0
c2375 0 1
c2375 0 2
c2375 0 3
c2375 0 4
c2375 1 0
c2375 1 1
c2375 1 2
c2375 1 3
c2375 1 4
c2375 3 0
c2375 3 1
c2375 3 2
c2375 3 3
c2375 3 4
c2375 4 0
c2375 4 1
c2375 4 2
c2375 4 3
c2375 4 4
c2378 4 0
c2378 4 1
c2378 4 2
c2378 4 3
c2378 4 4
c2382 4 0
c2382 4 1
c2382 4 2
c2382 4 3
c2382 4 4
c2383 3 0
c2383 3 1
c2383 3 2
c2383 3 3
c2383 3 4
c2383 4 5
c2383 4 6
c2383 4 7
c2383 4 8
c2383 4 9
c2384 3 0
c2384 3 5
c2384 3 6
c2384 3 7
c2384 3 8
c2384 3 9
c2384 4 5
c2384 4 6
c2384 4 7
c2384 4 8
c2384 4 9
c2386 0 5
c2386 0 6
c2386 0 7
c2386 0 8
c2386 0 9
c2386 1 5
c2386 1 6
c2386 1 7
c2386 1 8
c2386 1 9
c2387 0 5
c2387 0 6
c2387 0 7
c2387 0 8
c2387 0 9
c2387 1 5
c2387 1 6
c2387 1 7
c2387 1 8
c2387 1 9
c2387 2 5
c2387 2 6
c2387 2 7
c2387 2 8
c2387 2 9
c2387 3 0
c2387 3 1
c2387 3 2
c2387 3 3
c2387 4 0
c2387 4 1
c2387 4 2
c2387 4 3
c2391 0 5
c2391 0 6
c2391 0 7
c2391 0 8
c2391 0 9
c2391 1 5
c2391 1 6
c2391 1 7
c2391 1 8
c2391 1 9
c2395 3 5
c2395 3 6
c2395 3 7
c2395 3 8
c2395 3 9
c2395 4 0
c2395 4 1
c2395 4 2
c2395 4 3
c2395 4 4
c2395 4 5
c2395 4 6
c2395 4 7
c2395 4 8
c2395 4 9
c2396 3 0
c2396 3 1
c2396 3 2
c2396 3 3
c2396 3 4
c2396 3 5
c2396 3 6
c2396 3 7
c2396 3 8
c2396 3 9
c2396 4 0
c2396 4 1
c2396 4 2
c2396 4 3
c2396 4 4
c2396 4 5
c2396 4 6
c2396 4 7
c2396 4 8
c2396 4 9
c2397 3 0
c2397 3 1
c2397 3 2
c2397 3 3
c2397 3 4
c2397 3 5
c2397 3 6
c2397 3 7
c2397 3 8
c2397 3 9
c2397 4 0
c2397 4 1
c2397 4 2
c2397 4 3
c2397 4 4
c2398 0 0
c2398 0 1
c2398 0 2
c2398 0 3
c2398 0 4
c2398 0 5
c2398 0 6
c2398 0 7
c2398 0 8
c2398 0 9
c2398 1 0
c2398 1 1
c2398 1 2
c2398 1 3
c2398 1 4
c2398 1 5
c2398 1 6
c2398 1 7
c2398 1 8
c2398 1 9
c2398 3 0
c2398 3 1
c2398 3 2
c2398 3 3
c2398 3 4
c2398 3 5
c2398 3 6
c2398 3 7
c2398 3 8
c2398 3 9
c2398 4 5
c2398 4 6
c2398 4 7
c2398 4 8
c2398 4 9
c2402 3 5
c2402 3 6
c2402 3 7
c2402 3 8
c2402 3 9
c2402 4 5
c2402 4 6
c2402 4 7
c2402 4 8
c2402 4 9
c2405 3 0
c2405 3 1
c2405 3 2
c2405 3 3
c2405 3 5
c2405 3 6
c2405 3 7
c2405 3 8
c2405 3 9
c2405 4 5
c2405 4 6
c2405 4 7
c2405 4 8
c2405 4 9
c2407 3 5
c2407 3 6
c2407 3 7
c2407 3 8
c2407 3 9
c2407 4 0
c2407 4 1
c2407 4 2
c2407 4 3
c2407 4 4
c2407 4 5
c2407 4 6
c2407 4 7
c2407 4 8
c2407 4 9
c2408 3 0
c2408 3 1
c2408 3 2
c2408 3 3
c2408 3 4
c2408 3 5
c2408 3 6
c2408 3 7
c2408 3 8
c2408 3 9
c2408 4 5
c2408 4 6
c2408 4 7
c2408 4 8
c2408 4 9
c2409 3 0
c2409 3 1
c2409 3 2
c2409 3 3
c2409 3 4
c2409 3 5
c2409 3 6
c2409 3 7
c2409 3 8
c2409 3 9
c2409 4 0
c2409 4 1
c2409 4 2
c2409 4 3
c2409 4 4
c2409 4 5
c2409 4 6
c2409 4 7
c2409 4 8
c2409 4 9
c2410 4 0
c2410 4 1
c2410 4 2
c2410 4 3
c2410 4 4
c2413 3 0
c2413 3 1
c2413 3 2
c2413 3 3
c2413 3 4
c2413 3 5
c2413 3 6
c2413 3 7
c2413 3 8
c2413 3 9
c2413 4 0
c2413 4 1
c2413 4 2
c2413 4 3
c2413 4 4
c2413 4 5
c2413 4 6
c2413 4 7
c2413 4 8
c2413 4 9
c2414 3 0
c2414 3 1
c2414 3 2
c2414 3 3
c2414 3 4
c2414 3 5
c2414 3 6
c2414 3 7
c2414 3 8
c2414 3 9
c2414 4 0
c2414 4 1
c2414 4 2
c2414 4 3
c2414 4 4
c2414 4 5
c2414 4 6
c2414 4 7
c2414 4 8
c2414 4 9
c2415 3 0
c2415 3 1
c2415 3 2
c2415 3 3
c2415 3 4
c2415 3 5
c2415 3 6
c2415 3 7
c2415 3 8
c2415 3 9
c2415 4 0
c2415 4 1
c2415 4 2
c2415 4 3
c2415 4 4
c2415 4 5
c2415 4 6
c2415 4 7
c2415 4 8
c2415 4 9
c2469 1 0
c2469 1 1
c2469 1 2
c2469 1 3
c2469 1 4
c2469 1 5
c2469 1 6
c2469 1 7
c2469 1 8
c2469 1 9
c2469 3 0
c2469 3 1
c2469 3 2
c2469 3 3
c2469 3 4
c2469 3 5
c2469 3 6
c2469 3 7
c2469 3 8
c2469 3 9
c2498 0 0
c2498 0 1
c2498 0 2
c2498 0 3
c2498 0 4
c2498 0 5
c2498 0 6
c2498 0 7
c2498 0 8
c2498 0 9
c2498 1 0
c2498 1 1
c2498 1 2
c2498 1 3
c2498 1 4
c2498 1 5
c2498 1 6
c2498 1 7
c2498 1 8
c2498 1 9
c2504 0 0
c2504 0 1
c2504 0 2
c2504 0 3
c2504 0 4
c2504 0 5
c2504 0 6
c2504 0 7
c2504 0 8
c2504 0 9
c2504 1 0
c2504 1 1
c2504 1 2
c2504 1 3
c2504 1 4
c2504 1 5
c2504 1 6
c2504 1 7
c2504 1 8
c2504 1 9
c2515 3 0
c2515 3 1
c2515 3 2
c2515 3 3
c2515 3 4
c2515 3 5
c2515 3 6
c2515 3 7
c2515 3 8
c2515 3 9
c2516 1 0
c2516 1 1
c2516 1 2
c2516 1 3
c2516 1 4
c2516 1 5
c2516 1 6
c2516 1 7
c2516 1 8
c2516 1 9
c2516 4 0
c2516 4 1
c2516 4 2
c2516 4 3
c2516 4 4
c2516 4 5
c2516 4 6
c2516 4 7
c2516 4 8
c2516 4 9
c2613 3 0
c2613 3 1
c2613 3 2
c2613 3 3
c2613 3 4
c2613 3 5
c2613 3 6
c2613 3 7
c2613 3 8
c2613 3 9
c2621 0 0
c2621 0 1
c2621 0 2
c2621 0 3
c2621 0 4
c2621 0 5
c2621 0 6
c2621 0 7
c2621 0 8
c2621 0 9
c2621 1 0
c2621 1 1
c2621 1 2
c2621 1 3
c2621 1 4
c2621 1 5
c2621 1 6
c2621 1 7
c2621 1 8
c2621 1 9
c2622 0 0
c2622 0 1
c2622 0 2
c2622 0 3
c2622 0 4
c2622 0 5
c2622 0 6
c2622 0 7
c2622 0 8
c2622 0 9
c2622 1 0
c2622 1 1
c2622 1 2
c2622 1 3
c2622 1 4
c2622 1 5
c2622 1 6
c2622 1 7
c2622 1 8
c2622 1 9
c2622 3 5
c2622 3 6
c2622 3 7
c2622 3 8
c2622 3 9
c2622 4 5
c2622 4 6
c2622 4 7
c2622 4 8
c2622 4 9
c2636 0 5
c2636 0 6
c2636 0 7
c2636 0 8
c2636 0 9
c2636 1 5
c2636 1 6
c2636 1 7
c2636 1 8
c2636 1 9
c2639 3 5
c2639 3 6
c2639 3 7
c2639 3 8
c2639 3 9
c2639 4 5
c2639 4 6
c2639 4 7
c2639 4 8
c2639 4 9
c2644 3 5
c2644 3 6
c2644 3 7
c2644 3 8
c2644 3 9
c2644 4 0
c2644 4 1
c2644 4 2
c2644 4 3
c2644 4 4
c2644 4 5
c2644 4 6
c2644 4 7
c2644 4 8
c2644 4 9
c2645 0 5
c2645 0 6
c2645 0 7
c2645 0 8
c2645 0 9
c2645 1 5
c2645 1 6
c2645 1 7
c2645 1 8
c2645 1 9
c2645 2 0
c2645 2 1
c2645 2 2
c2645 2 3
c2645 3 5
c2645 3 6
c2645 3 7
c2645 3 8
c2645 3 9
c2645 4 5
c2645 4 6
c2645 4 7
c2645 4 8
c2645 4 9
c2657 3 0
c2657 3 1
c2657 3 2
c2657 3 3
c2657 3 4
c2657 3 5
c2657 3 6
c2657 3 7
c2657 3 8
c2657 3 9
c2657 4 0
c2657 4 1
c2657 4 2
c2657 4 3
c2657 4 4
c2657 4 5
c2657 4 6
c2657 4 7
c2657 4 8
c2657 4 9

ROOM_CONSTRAINTS:
c2657 r265
c2657 r266

END.
